Route #1: 26 7 35 53
Route #2: 14 11
Route #3: 38 10
Route #4: 31 39 9
Route #5: 40 12 17
Route #6: 51 2 30
Route #7: 6 33 16
Route #8: 3 44 32 25
Route #9: 50 18 24 49
Route #10: 23 43 41 42 1
Route #11: 22 28 21
Route #12: 36 47 48 29
Route #13: 5 37 20 15
Route #14: 13 54 19 8
Route #15: 46 34 52
Route #16: 27 45 4
Cost 980